; ./prepared/aeval/./multi-phase/s_split_28_000.smt2
(set-logic HORN)


(declare-fun |inv| ( Int Int Int ) Bool)
(declare-fun |fail| ( ) Bool)

(assert
  (forall ( (A Int) (B Int) (C Int) ) 
    (=>
      (and
        (and (= C 0) (>= B 100) (= A 0))
      )
      (inv A B C)
    )
  )
)
(assert
  (forall ( (A Int) (B Int) (C Int) (D Int) (E Int) (F Int) ) 
    (=>
      (and
        (inv B A C)
        (let ((a!1 (= F (ite (<= A (div B 50)) (+ 1 C) C))))
  (and (= E (+ (- 1) A)) a!1 (= D (+ 1 B))))
      )
      (inv D E F)
    )
  )
)
(assert
  (forall ( (A Int) (B Int) (C Int) ) 
    (=>
      (and
        (inv A B C)
        (and (<= C 0) (= B 0))
      )
      fail
    )
  )
)
(assert
  (forall ( (CHC_COMP_UNUSED Bool) ) 
    (=>
      (and
        fail
        true
      )
      false
    )
  )
)

(check-sat)
(exit)
